30
1 0 5
2 0 7
2 1 4
3 0 6
3 1 2
3 2 5
4 0 3
4 1 8
4 2 5
4 3 8
5 0 2
5 1 5
5 2 1
5 3 4
5 4 4
6 0 5
6 1 8
6 2 6
6 3 6
6 4 4
6 5 1
7 0 5
7 1 5
7 2 5
7 3 8
7 4 6
7 5 2
7 6 5
8 0 4
8 1 7
8 2 6
8 3 3
8 4 5
8 5 2
8 6 3
8 7 6
9 0 1
9 1 8
9 2 3
9 3 3
9 4 8
9 5 7
9 6 2
9 7 2
9 8 2
10 0 5
10 1 7
10 2 8
10 3 2
10 4 7
10 5 4
10 6 4
10 7 2
10 8 3
10 9 1
11 0 2
11 1 4
11 2 7
11 3 7
11 4 5
11 5 2
11 6 1
11 7 8
11 8 7
11 9 7
11 10 1
12 0 8
12 1 7
12 2 3
12 3 6
12 4 8
12 5 6
12 6 8
12 7 8
12 8 5
12 9 8
12 10 8
12 11 2
13 0 4
13 1 5
13 2 1
13 3 5
13 4 1
13 5 2
13 6 4
13 7 1
13 8 4
13 9 3
13 10 3
13 11 4
13 12 4
14 0 2
14 1 6
14 2 8
14 3 5
14 4 6
14 5 6
14 6 3
14 7 6
14 8 6
14 9 4
14 10 3
14 11 4
14 12 3
14 13 3
15 0 8
15 1 4
15 2 6
15 3 7
15 4 5
15 5 5
15 6 1
15 7 6
15 8 1
15 9 3
15 10 8
15 11 3
15 12 7
15 13 7
15 14 6
16 0 7
16 1 7
16 2 3
16 3 1
16 4 1
16 5 4
16 6 3
16 7 6
16 8 4
16 9 6
16 10 4
16 11 8
16 12 7
16 13 2
16 14 4
16 15 3
17 0 1
17 1 6
17 2 4
17 3 8
17 4 6
17 5 7
17 6 1
17 7 4
17 8 6
17 9 4
17 10 2
17 11 1
17 12 8
17 13 6
17 14 4
17 15 4
17 16 3
18 0 3
18 1 5
18 2 5
18 3 3
18 4 1
18 5 7
18 6 3
18 7 1
18 8 2
18 9 3
18 10 2
18 11 6
18 12 2
18 13 1
18 14 2
18 15 3
18 16 1
18 17 6
19 0 3
19 1 8
19 2 4
19 3 3
19 4 7
19 5 2
19 6 1
19 7 3
19 8 2
19 9 3
19 10 8
19 11 1
19 12 8
19 13 6
19 14 3
19 15 3
19 16 1
19 17 6
19 18 1
20 0 4
20 1 3
20 2 2
20 3 4
20 4 6
20 5 1
20 6 2
20 7 7
20 8 8
20 9 3
20 10 8
20 11 3
20 12 2
20 13 7
20 14 8
20 15 4
20 16 2
20 17 7
20 18 1
20 19 3
21 0 8
21 1 2
21 2 2
21 3 3
21 4 3
21 5 4
21 6 4
21 7 1
21 8 1
21 9 1
21 10 5
21 11 4
21 12 2
21 13 6
21 14 4
21 15 5
21 16 8
21 17 2
21 18 3
21 19 8
21 20 3
22 0 8
22 1 2
22 2 2
22 3 4
22 4 5
22 5 5
22 6 4
22 7 1
22 8 8
22 9 1
22 10 3
22 11 5
22 12 8
22 13 1
22 14 6
22 15 2
22 16 7
22 17 4
22 18 5
22 19 8
22 20 1
22 21 1
23 0 7
23 1 8
23 2 7
23 3 7
23 4 5
23 5 1
23 6 8
23 7 6
23 8 5
23 9 2
23 10 5
23 11 3
23 12 4
23 13 3
23 14 6
23 15 2
23 16 6
23 17 8
23 18 8
23 19 2
23 20 3
23 21 2
23 22 3
24 0 2
24 1 3
24 2 8
24 3 7
24 4 7
24 5 2
24 6 3
24 7 1
24 8 5
24 9 3
24 10 3
24 11 7
24 12 5
24 13 3
24 14 7
24 15 1
24 16 2
24 17 7
24 18 1
24 19 6
24 20 3
24 21 2
24 22 5
24 23 5
25 0 8
25 1 5
25 2 1
25 3 8
25 4 5
25 5 1
25 6 5
25 7 8
25 8 8
25 9 4
25 10 8
25 11 4
25 12 5
25 13 6
25 14 4
25 15 6
25 16 6
25 17 1
25 18 5
25 19 4
25 20 1
25 21 6
25 22 5
25 23 1
25 24 2
26 0 4
26 1 3
26 2 5
26 3 4
26 4 8
26 5 5
26 6 6
26 7 6
26 8 2
26 9 5
26 10 8
26 11 6
26 12 3
26 13 5
26 14 5
26 15 5
26 16 1
26 17 5
26 18 6
26 19 7
26 20 2
26 21 6
26 22 3
26 23 6
26 24 7
26 25 5
27 0 4
27 1 1
27 2 7
27 3 6
27 4 3
27 5 1
27 6 8
27 7 4
27 8 7
27 9 1
27 10 8
27 11 8
27 12 5
27 13 6
27 14 2
27 15 4
27 16 2
27 17 5
27 18 6
27 19 5
27 20 1
27 21 1
27 22 5
27 23 8
27 24 3
27 25 2
27 26 2
28 0 2
28 1 7
28 2 2
28 3 4
28 4 4
28 5 5
28 6 3
28 7 1
28 8 6
28 9 2
28 10 6
28 11 2
28 12 7
28 13 7
28 14 1
28 15 1
28 16 1
28 17 8
28 18 8
28 19 4
28 20 5
28 21 3
28 22 8
28 23 3
28 24 5
28 25 7
28 26 5
28 27 5
29 0 4
29 1 3
29 2 4
29 3 6
29 4 4
29 5 5
29 6 6
29 7 8
29 8 2
29 9 7
29 10 8
29 11 7
29 12 3
29 13 2
29 14 4
29 15 7
29 16 3
29 17 6
29 18 7
29 19 4
29 20 1
29 21 7
29 22 1
29 23 4
29 24 2
29 25 6
29 26 5
29 27 3
29 28 6
